/* Objective function */
min: - 0.0054fpdi - 0.0054fpdo + 0.05apdi + 0.05apdo + 0.0002pi + 0.0002po - 0.5fsi - 0.5fso;

apdi = 0.0 hi + -0.0 li + 9.87083 ri + -0.00714 ci + -1.4271 si + 0.0 ti + 0.10857 fTempIi + 0.00831 ami + -111.0731;
asi = 0.0 hi + 0.0 li + -0.0 ri + 0.0 ci + 0.0 si + 0.0 ti + -0.0 fTempIi + 0.0001 ami + -0.00214;
aTempOi = 0.0 hi + -0.0 li + 0.2856 ri + -0.0625 ci + -0.04355 si + 0.0 ti + 0.78156 fTempIi + -0.00029 ami + 6.81521;
fpdi = 0.0 hi + 0.0 li + 29.81634 ri + -76.36262 ci + -0.05254 si + -0.0 ti + -1.55755 fTempIi + 0.00036 ami + 828.80684;
fsi = 0.0 hi + 0.0 li + -0.0 ri + -0.15 ci + -0.0 si + -0.0 ti + -0.0 fTempIi + 0.0 ami + 3.12;
fTempOi = 0.0 hi + -0.0 li + -0.28406 ri + 0.0619 ci + 0.04329 si + 0.0 ti + 0.23051 fTempIi + -0.00027 ami + 9.98065;
pi = 0.0 hi + -0.0 li + 297.53125 ri + 2.8 ci + -28.982 si + 0.0 ti + -0.0 fTempIi + -0.0 ami + 1398.8275;

apdo = 0.0 ho + -0.0 lo + 11.93783 ro + -0.00238 co + -1.80356 so + 0.0 to + 0.08553 fTempIo + 0.00985 amo + -147.66072;
aso = 0.0 ho + 0.0 lo + -5e-05 ro + -0.00015 co + -2e-05 so + 0.0 to + -9e-05 fTempIo + 9e-05 amo + 0.00245;
aTempOo = 0.0 ho + -0.0 lo + -0.30079 ro + 0.07181 co + 0.05935 so + 0.0 to + 0.76672 fTempIo + 0.00032 amo + -0.7771;
fpdo = 0.0 ho + 0.0 lo + 26.01955 ro + -64.94317 co + 0.06556 so + 0.0 to + -1.39904 fTempIo + -0.00034 amo + 737.70901;
fso = 0.0 ho + 0.0 lo + 0.0 ro + -0.135 co + 0.0 so + 0.0 to + 0.0 fTempIo + -0.0 amo + 2.965;
fTempOo = 0.0 ho + -0.0 lo + 0.30062 ro + -0.06913 co + -0.05981 so + 0.0 to + 0.24271 fTempIo + 0.00029 amo + 12.69843;
po = 0.0 ho + -0.0 lo + 244.6 ro + 2.7 co + -19.36762 so + 0.0 to + -0.0 fTempIo + 0.0 amo + 634.31905;

/* Variable bounds */
aTempOi > 18.6;
1 =r6i + r8i + r10i + r12i + r14i;
ri =6r6i + 8r8i + 10r10i + 12r12i + 14r14i;
1 =s30i + s40i + s50i + s60i;
si =30s30i + 40s40i + 50s50i + 60s60i;
ti = 3;
apdi > 100;
apdi < 300;
asi > 0;
asi < 3;
aTempOi > 5;
aTempOi < 25;
fpdi > 100;
fpdi < 300;
fsi > 0;
fsi < 1.25;
fTempOi > 5;
fTempOi < 25;
pi > 0;
ri > 6;
ri < 14;
ci > 1;
ci < 12;
si > 25;
si < 60;
ti > 1;
ti < 3;
fTempIi > 5;
fTempIi < 25;

/* aTempOo < 11.4; */
1 =r6o + r8o + r10o + r12o + r14o;
ro =6r6o + 8r8o + 10r10o + 12r12o + 14r14o;
1 =s25o + s30o + s40o;
so =25s25o + 30s30o + 40s40o;
to = 2;
apdo > 100;
apdo < 300;
aso > 0;
aso < 3;
aTempOo > 5;
aTempOo < 25;
fpdo > 100;
fpdo < 300;
fso > 0;
fso < 1.25;
fTempOo > 5;
fTempOo < 25;
po > 0;
ro > 6;
ro < 14;
co > 1;
co < 13;
so > 25;
so < 60;
to > 1;
to < 3;
fTempIo > 5;
fTempIo < 25;
int hi,li,si,ti,ci,ri,ami;
int ho,lo,so,to,co,ro,amo;
bin s25i,s30i,s40i,s50i,s60i,r6i,r8i,r10i,r12i,r14i;
bin s25o,s30o,s40o,s50o,s60o,r6o,r8o,r10o,r12o,r14o;
